p tw 117 21061 2 
1 3 
1 4 
1 5 
1 6 
1 7 
1 8 
1 9 
1 10 
1 11 
1 12 
1 13 
1 14 
1 15 
1 16 
1 17 
1 18 
1 19 
1 20 
1 21 
1 22 
1 23 
1 24 
1 25 
1 32 
1 44 
1 48 
1 62 
1 69 
1 84 
1 87 
1 94 
1 98 
1 99 
1 100 
1 101 
2 3 
2 4 
2 5 
2 6 
2 7 
2 8 
2 9 
2 10 
2 11 
2 12 
2 13 
2 14 
2 15 
2 26 
2 27 
2 28 
2 29 
2 30 
2 31 
2 32 
2 33 
2 34 
2 35 
2 36 
2 37 
2 38 
2 39 
2 40 
2 41 
2 42 
2 43 
2 44 
2 45 
2 46 
2 47 
3 4 
3 5 
3 6 
3 7 
3 8 
3 9 
3 10 
3 11 
3 12 
3 13 
3 14 
3 16 
3 26 
3 37 
3 39 
3 48 
3 49 
3 50 
3 51 
3 52 
3 53 
3 54 
3 55 
3 56 
3 57 
3 66 
3 67 
3 68 
3 69 
3 70 
3 71 
3 72 
3 73 
3 74 
4 5 
4 6 
4 7 
4 8 
4 9 
4 10 
4 11 
4 12 
4 13 
4 17 
4 24 
4 26 
4 36 
4 38 
4 47 
4 53 
4 57 
4 58 
4 59 
4 60 
4 61 
4 62 
4 63 
4 64 
4 65 
4 68 
4 77 
4 85 
4 91 
4 101 
4 110 
4 114 
4 117 
5 6 
5 7 
5 8 
5 9 
5 10 
5 11 
5 12 
5 13 
5 18 
5 20 
5 27 
5 29 
5 40 
5 42 
5 48 
5 50 
5 58 
5 60 
5 66 
5 68 
5 75 
5 76 
5 77 
5 78 
5 79 
5 80 
5 81 
5 86 
5 87 
5 88 
5 89 
5 90 
6 7 
6 8 
6 9 
6 10 
6 11 
6 12 
6 13 
6 15 
6 19 
6 28 
6 33 
6 41 
6 49 
6 55 
6 57 
6 59 
6 67 
6 75 
6 79 
6 81 
6 82 
6 83 
6 84 
6 85 
6 90 
6 92 
6 96 
6 99 
6 109 
6 110 
6 112 
7 8 
7 9 
7 10 
7 11 
7 12 
7 13 
7 17 
7 21 
7 30 
7 34 
7 43 
7 46 
7 51 
7 54 
7 61 
7 69 
7 72 
7 76 
7 78 
7 82 
7 85 
7 86 
7 87 
7 91 
7 92 
7 93 
7 95 
7 103 
7 108 
7 109 
8 9 
8 10 
8 11 
8 12 
8 13 
8 22 
8 23 
8 31 
8 32 
8 42 
8 43 
8 52 
8 56 
8 60 
8 64 
8 67 
8 70 
8 77 
8 80 
8 83 
8 92 
8 94 
8 95 
8 96 
8 97 
8 103 
8 107 
8 115 
8 117 
9 10 
9 11 
9 12 
9 13 
9 19 
9 22 
9 33 
9 36 
9 37 
9 45 
9 53 
9 61 
9 63 
9 70 
9 74 
9 76 
9 78 
9 84 
9 88 
9 90 
9 98 
9 102 
9 103 
9 104 
9 106 
9 111 
9 113 
9 115 
10 11 
10 12 
10 13 
10 18 
10 25 
10 29 
10 31 
10 44 
10 46 
10 50 
10 54 
10 59 
10 64 
10 71 
10 73 
10 79 
10 82 
10 91 
10 97 
10 99 
10 102 
10 104 
10 105 
10 106 
10 107 
10 113 
10 114 
11 12 
11 13 
11 23 
11 25 
11 30 
11 34 
11 38 
11 47 
11 52 
11 56 
11 65 
11 66 
11 73 
11 75 
11 81 
11 89 
11 93 
11 96 
11 98 
11 100 
11 102 
11 106 
11 108 
11 110 
11 111 
11 116 
12 13 
12 16 
12 24 
12 28 
12 35 
12 39 
12 45 
12 49 
12 58 
12 63 
12 74 
12 80 
12 86 
12 89 
12 93 
12 94 
12 95 
12 100 
12 105 
12 107 
12 109 
12 112 
12 113 
12 114 
12 116 
13 20 
13 21 
13 27 
13 35 
13 40 
13 41 
13 51 
13 55 
13 62 
13 65 
13 71 
13 72 
13 83 
13 88 
13 97 
13 101 
13 104 
13 105 
13 108 
13 111 
13 112 
13 115 
13 116 
13 117 
14 15 
14 16 
14 17 
14 18 
14 19 
14 20 
14 21 
14 22 
14 23 
14 24 
14 25 
14 26 
14 27 
14 28 
14 29 
14 30 
14 31 
14 32 
14 33 
14 34 
14 35 
14 36 
14 39 
14 57 
14 66 
14 67 
14 68 
14 69 
14 70 
14 71 
14 72 
14 73 
14 74 
15 16 
15 17 
15 18 
15 19 
15 20 
15 21 
15 22 
15 23 
15 24 
15 25 
15 33 
15 37 
15 38 
15 39 
15 40 
15 41 
15 42 
15 43 
15 44 
15 45 
15 46 
15 47 
15 55 
15 57 
15 79 
15 90 
15 92 
15 96 
15 99 
15 109 
15 110 
15 112 
16 17 
16 18 
16 19 
16 20 
16 21 
16 22 
16 23 
16 24 
16 25 
16 26 
16 28 
16 37 
16 45 
16 48 
16 49 
16 50 
16 51 
16 52 
16 53 
16 54 
16 55 
16 56 
16 58 
16 74 
16 86 
16 95 
16 100 
16 107 
16 112 
16 114 
16 116 
17 18 
17 19 
17 20 
17 21 
17 22 
17 23 
17 24 
17 25 
17 26 
17 34 
17 38 
17 46 
17 54 
17 57 
17 58 
17 59 
17 60 
17 61 
17 62 
17 63 
17 64 
17 65 
17 72 
17 78 
17 85 
17 87 
17 95 
17 103 
17 108 
17 109 
18 19 
18 20 
18 21 
18 22 
18 23 
18 24 
18 25 
18 27 
18 31 
18 40 
18 46 
18 48 
18 50 
18 58 
18 59 
18 66 
18 71 
18 75 
18 76 
18 77 
18 78 
18 79 
18 80 
18 91 
18 99 
18 102 
18 105 
18 106 
18 107 
19 20 
19 21 
19 22 
19 23 
19 24 
19 25 
19 28 
19 33 
19 41 
19 45 
19 49 
19 53 
19 59 
19 63 
19 67 
19 70 
19 75 
19 76 
19 81 
19 82 
19 83 
19 84 
19 85 
19 88 
19 98 
19 102 
19 103 
19 104 
20 21 
20 22 
20 23 
20 24 
20 25 
20 29 
20 35 
20 40 
20 42 
20 50 
20 51 
20 60 
20 65 
20 68 
20 71 
20 81 
20 83 
20 86 
20 87 
20 88 
20 89 
20 90 
20 101 
20 104 
20 108 
20 112 
20 115 
21 22 
21 23 
21 24 
21 25 
21 27 
21 30 
21 41 
21 43 
21 51 
21 55 
21 61 
21 62 
21 69 
21 72 
21 76 
21 82 
21 86 
21 88 
21 91 
21 92 
21 93 
21 97 
21 105 
21 111 
21 116 
21 117 
22 23 
22 24 
22 25 
22 31 
22 36 
22 37 
22 43 
22 52 
22 60 
22 61 
22 70 
22 74 
22 77 
22 78 
22 83 
22 84 
22 90 
22 94 
22 95 
22 96 
22 97 
22 106 
22 111 
22 113 
22 115 
23 24 
23 25 
23 30 
23 32 
23 38 
23 42 
23 52 
23 56 
23 64 
23 67 
23 73 
23 75 
23 80 
23 89 
23 92 
23 100 
23 102 
23 103 
23 107 
23 108 
23 110 
23 111 
23 115 
23 117 
24 25 
24 35 
24 36 
24 39 
24 47 
24 49 
24 53 
24 63 
24 68 
24 77 
24 80 
24 85 
24 89 
24 91 
24 93 
24 94 
24 101 
24 105 
24 109 
24 110 
24 113 
24 114 
24 117 
25 29 
25 34 
25 44 
25 47 
25 54 
25 56 
25 64 
25 65 
25 66 
25 73 
25 79 
25 81 
25 82 
25 93 
25 96 
25 97 
25 98 
25 104 
25 106 
25 113 
25 114 
25 116 
26 27 
26 28 
26 29 
26 30 
26 31 
26 32 
26 33 
26 34 
26 35 
26 36 
26 37 
26 38 
26 48 
26 49 
26 50 
26 51 
26 52 
26 53 
26 54 
26 55 
26 56 
26 57 
26 58 
26 59 
26 60 
26 61 
26 62 
26 63 
26 64 
26 65 
27 28 
27 29 
27 30 
27 31 
27 32 
27 33 
27 34 
27 35 
27 36 
27 40 
27 41 
27 48 
27 55 
27 58 
27 62 
27 66 
27 72 
27 75 
27 76 
27 77 
27 78 
27 79 
27 80 
27 88 
27 97 
27 105 
27 111 
27 116 
27 117 
28 29 
28 30 
28 31 
28 32 
28 33 
28 34 
28 35 
28 36 
28 41 
28 45 
28 49 
28 58 
28 59 
28 67 
28 74 
28 75 
28 81 
28 82 
28 83 
28 84 
28 85 
28 86 
28 95 
28 100 
28 107 
28 112 
28 114 
28 116 
29 30 
29 31 
29 32 
29 33 
29 34 
29 35 
29 36 
29 42 
29 44 
29 50 
29 54 
29 60 
29 64 
29 68 
29 73 
29 79 
29 81 
29 82 
29 86 
29 87 
29 88 
29 89 
29 90 
29 97 
29 104 
29 113 
29 114 
30 31 
30 32 
30 33 
30 34 
30 35 
30 36 
30 38 
30 43 
30 51 
30 52 
30 61 
30 69 
30 73 
30 75 
30 76 
30 82 
30 86 
30 89 
30 91 
30 92 
30 93 
30 100 
30 102 
30 108 
30 110 
30 111 
31 32 
31 33 
31 34 
31 35 
31 36 
31 43 
31 46 
31 50 
31 52 
31 59 
31 60 
31 70 
31 71 
31 77 
31 83 
31 91 
31 94 
31 95 
31 96 
31 97 
31 99 
31 102 
31 105 
31 106 
31 107 
32 33 
32 34 
32 35 
32 36 
32 42 
32 44 
32 48 
32 56 
32 62 
32 64 
32 67 
32 69 
32 80 
32 84 
32 87 
32 92 
32 94 
32 98 
32 99 
32 100 
32 101 
32 103 
32 107 
32 115 
32 117 
33 34 
33 35 
33 36 
33 45 
33 53 
33 55 
33 57 
33 63 
33 70 
33 76 
33 79 
33 88 
33 90 
33 92 
33 96 
33 98 
33 99 
33 102 
33 103 
33 104 
33 109 
33 110 
33 112 
34 35 
34 36 
34 46 
34 47 
34 54 
34 56 
34 65 
34 66 
34 72 
34 78 
34 81 
34 85 
34 87 
34 93 
34 95 
34 96 
34 98 
34 103 
34 106 
34 108 
34 109 
34 116 
35 36 
35 39 
35 40 
35 49 
35 51 
35 63 
35 65 
35 71 
35 80 
35 83 
35 89 
35 93 
35 94 
35 101 
35 104 
35 105 
35 108 
35 109 
35 112 
35 113 
35 115 
36 37 
36 47 
36 53 
36 61 
36 68 
36 74 
36 77 
36 78 
36 84 
36 85 
36 90 
36 91 
36 101 
36 106 
36 110 
36 111 
36 113 
36 114 
36 115 
36 117 
37 38 
37 39 
37 40 
37 41 
37 42 
37 43 
37 44 
37 45 
37 46 
37 47 
37 48 
37 49 
37 50 
37 51 
37 52 
37 53 
37 54 
37 55 
37 56 
37 61 
37 74 
37 78 
37 84 
37 90 
37 106 
37 111 
37 113 
37 115 
38 39 
38 40 
38 41 
38 42 
38 43 
38 44 
38 45 
38 46 
38 47 
38 52 
38 57 
38 58 
38 59 
38 60 
38 61 
38 62 
38 63 
38 64 
38 65 
38 73 
38 75 
38 89 
38 100 
38 102 
38 108 
38 110 
38 111 
39 40 
39 41 
39 42 
39 43 
39 44 
39 45 
39 46 
39 47 
39 49 
39 57 
39 63 
39 66 
39 67 
39 68 
39 69 
39 70 
39 71 
39 72 
39 73 
39 74 
39 80 
39 89 
39 93 
39 94 
39 105 
39 109 
39 113 
40 41 
40 42 
40 43 
40 44 
40 45 
40 46 
40 47 
40 48 
40 51 
40 58 
40 65 
40 66 
40 71 
40 75 
40 76 
40 77 
40 78 
40 79 
40 80 
40 83 
40 101 
40 104 
40 108 
40 112 
40 115 
41 42 
41 43 
41 44 
41 45 
41 46 
41 47 
41 49 
41 55 
41 59 
41 62 
41 67 
41 72 
41 75 
41 81 
41 82 
41 83 
41 84 
41 85 
41 88 
41 97 
41 105 
41 111 
41 116 
41 117 
42 43 
42 44 
42 45 
42 46 
42 47 
42 50 
42 56 
42 60 
42 64 
42 67 
42 68 
42 80 
42 81 
42 86 
42 87 
42 88 
42 89 
42 90 
42 92 
42 103 
42 107 
42 115 
42 117 
43 44 
43 45 
43 46 
43 47 
43 51 
43 52 
43 60 
43 61 
43 69 
43 70 
43 76 
43 77 
43 82 
43 83 
43 86 
43 91 
43 92 
43 93 
43 94 
43 95 
43 96 
43 97 
44 45 
44 46 
44 47 
44 48 
44 54 
44 62 
44 64 
44 69 
44 73 
44 79 
44 82 
44 84 
44 87 
44 94 
44 97 
44 98 
44 99 
44 100 
44 101 
44 104 
44 113 
44 114 
45 46 
45 47 
45 53 
45 58 
45 63 
45 70 
45 74 
45 76 
45 86 
45 88 
45 95 
45 98 
45 100 
45 102 
45 103 
45 104 
45 107 
45 112 
45 114 
45 116 
46 47 
46 50 
46 54 
46 59 
46 71 
46 72 
46 78 
46 85 
46 87 
46 91 
46 95 
46 99 
46 102 
46 103 
46 105 
46 106 
46 107 
46 108 
46 109 
47 53 
47 56 
47 65 
47 66 
47 68 
47 77 
47 81 
47 85 
47 91 
47 93 
47 96 
47 98 
47 101 
47 106 
47 110 
47 114 
47 116 
47 117 
48 49 
48 50 
48 51 
48 52 
48 53 
48 54 
48 55 
48 56 
48 58 
48 62 
48 66 
48 69 
48 75 
48 76 
48 77 
48 78 
48 79 
48 80 
48 84 
48 87 
48 94 
48 98 
48 99 
48 100 
48 101 
49 50 
49 51 
49 52 
49 53 
49 54 
49 55 
49 56 
49 59 
49 63 
49 67 
49 75 
49 80 
49 81 
49 82 
49 83 
49 84 
49 85 
49 89 
49 93 
49 94 
49 105 
49 109 
49 113 
50 51 
50 52 
50 53 
50 54 
50 55 
50 56 
50 59 
50 60 
50 68 
50 71 
50 81 
50 86 
50 87 
50 88 
50 89 
50 90 
50 91 
50 99 
50 102 
50 105 
50 106 
50 107 
51 52 
51 53 
51 54 
51 55 
51 56 
51 61 
51 65 
51 69 
51 71 
51 76 
51 82 
51 83 
51 86 
51 91 
51 92 
51 93 
51 101 
51 104 
51 108 
51 112 
51 115 
52 53 
52 54 
52 55 
52 56 
52 60 
52 70 
52 73 
52 75 
52 77 
52 83 
52 89 
52 94 
52 95 
52 96 
52 97 
52 100 
52 102 
52 108 
52 110 
52 111 
53 54 
53 55 
53 56 
53 63 
53 68 
53 70 
53 76 
53 77 
53 85 
53 88 
53 91 
53 98 
53 101 
53 102 
53 103 
53 104 
53 110 
53 114 
53 117 
54 55 
54 56 
54 64 
54 72 
54 73 
54 78 
54 79 
54 82 
54 85 
54 87 
54 95 
54 97 
54 103 
54 104 
54 108 
54 109 
54 113 
54 114 
55 56 
55 57 
55 62 
55 72 
55 79 
55 88 
55 90 
55 92 
55 96 
55 97 
55 99 
55 105 
55 109 
55 110 
55 111 
55 112 
55 116 
55 117 
56 64 
56 65 
56 66 
56 67 
56 80 
56 81 
56 92 
56 93 
56 96 
56 98 
56 103 
56 106 
56 107 
56 115 
56 116 
56 117 
57 58 
57 59 
57 60 
57 61 
57 62 
57 63 
57 64 
57 65 
57 66 
57 67 
57 68 
57 69 
57 70 
57 71 
57 72 
57 73 
57 74 
57 79 
57 90 
57 92 
57 96 
57 99 
57 109 
57 110 
57 112 
58 59 
58 60 
58 61 
58 62 
58 63 
58 64 
58 65 
58 66 
58 74 
58 75 
58 76 
58 77 
58 78 
58 79 
58 80 
58 86 
58 95 
58 100 
58 107 
58 112 
58 114 
58 116 
59 60 
59 61 
59 62 
59 63 
59 64 
59 65 
59 67 
59 71 
59 75 
59 81 
59 82 
59 83 
59 84 
59 85 
59 91 
59 99 
59 102 
59 105 
59 106 
59 107 
60 61 
60 62 
60 63 
60 64 
60 65 
60 68 
60 70 
60 77 
60 81 
60 83 
60 86 
60 87 
60 88 
60 89 
60 90 
60 94 
60 95 
60 96 
60 97 
61 62 
61 63 
61 64 
61 65 
61 69 
61 74 
61 76 
61 78 
61 82 
61 84 
61 86 
61 90 
61 91 
61 92 
61 93 
61 106 
61 111 
61 113 
61 115 
62 63 
62 64 
62 65 
62 69 
62 72 
62 84 
62 87 
62 88 
62 94 
62 97 
62 98 
62 99 
62 100 
62 101 
62 105 
62 111 
62 116 
62 117 
63 64 
63 65 
63 70 
63 76 
63 80 
63 88 
63 89 
63 93 
63 94 
63 98 
63 102 
63 103 
63 104 
63 105 
63 109 
63 113 
64 65 
64 67 
64 73 
64 79 
64 80 
64 82 
64 92 
64 97 
64 103 
64 104 
64 107 
64 113 
64 114 
64 115 
64 117 
65 66 
65 71 
65 81 
65 83 
65 93 
65 96 
65 98 
65 101 
65 104 
65 106 
65 108 
65 112 
65 115 
65 116 
66 67 
66 68 
66 69 
66 70 
66 71 
66 72 
66 73 
66 74 
66 75 
66 76 
66 77 
66 78 
66 79 
66 80 
66 81 
66 93 
66 96 
66 98 
66 106 
66 116 
67 68 
67 69 
67 70 
67 71 
67 72 
67 73 
67 74 
67 75 
67 80 
67 81 
67 82 
67 83 
67 84 
67 85 
67 92 
67 103 
67 107 
67 115 
67 117 
68 69 
68 70 
68 71 
68 72 
68 73 
68 74 
68 77 
68 81 
68 85 
68 86 
68 87 
68 88 
68 89 
68 90 
68 91 
68 101 
68 110 
68 114 
68 117 
69 70 
69 71 
69 72 
69 73 
69 74 
69 76 
69 82 
69 84 
69 86 
69 87 
69 91 
69 92 
69 93 
69 94 
69 98 
69 99 
69 100 
69 101 
70 71 
70 72 
70 73 
70 74 
70 76 
70 77 
70 83 
70 88 
70 94 
70 95 
70 96 
70 97 
70 98 
70 102 
70 103 
70 104 
71 72 
71 73 
71 74 
71 83 
71 91 
71 99 
71 101 
71 102 
71 104 
71 105 
71 106 
71 107 
71 108 
71 112 
71 115 
72 73 
72 74 
72 78 
72 85 
72 87 
72 88 
72 95 
72 97 
72 103 
72 105 
72 108 
72 109 
72 111 
72 116 
72 117 
73 74 
73 75 
73 79 
73 82 
73 89 
73 97 
73 100 
73 102 
73 104 
73 108 
73 110 
73 111 
73 113 
73 114 
74 78 
74 84 
74 86 
74 90 
74 95 
74 100 
74 106 
74 107 
74 111 
74 112 
74 113 
74 114 
74 115 
74 116 
75 76 
75 77 
75 78 
75 79 
75 80 
75 81 
75 82 
75 83 
75 84 
75 85 
75 89 
75 100 
75 102 
75 108 
75 110 
75 111 
76 77 
76 78 
76 79 
76 80 
76 82 
76 86 
76 88 
76 91 
76 92 
76 93 
76 98 
76 102 
76 103 
76 104 
77 78 
77 79 
77 80 
77 83 
77 85 
77 91 
77 94 
77 95 
77 96 
77 97 
77 101 
77 110 
77 114 
77 117 
78 79 
78 80 
78 84 
78 85 
78 87 
78 90 
78 95 
78 103 
78 106 
78 108 
78 109 
78 111 
78 113 
78 115 
79 80 
79 82 
79 90 
79 92 
79 96 
79 97 
79 99 
79 104 
79 109 
79 110 
79 112 
79 113 
79 114 
80 89 
80 92 
80 93 
80 94 
80 103 
80 105 
80 107 
80 109 
80 113 
80 115 
80 117 
81 82 
81 83 
81 84 
81 85 
81 86 
81 87 
81 88 
81 89 
81 90 
81 93 
81 96 
81 98 
81 106 
81 116 
82 83 
82 84 
82 85 
82 86 
82 91 
82 92 
82 93 
82 97 
82 104 
82 113 
82 114 
83 84 
83 85 
83 94 
83 95 
83 96 
83 97 
83 101 
83 104 
83 108 
83 112 
83 115 
84 85 
84 87 
84 90 
84 94 
84 98 
84 99 
84 100 
84 101 
84 106 
84 111 
84 113 
84 115 
85 87 
85 91 
85 95 
85 101 
85 103 
85 108 
85 109 
85 110 
85 114 
85 117 
86 87 
86 88 
86 89 
86 90 
86 91 
86 92 
86 93 
86 95 
86 100 
86 107 
86 112 
86 114 
86 116 
87 88 
87 89 
87 90 
87 94 
87 95 
87 98 
87 99 
87 100 
87 101 
87 103 
87 108 
87 109 
88 89 
88 90 
88 97 
88 98 
88 102 
88 103 
88 104 
88 105 
88 111 
88 116 
88 117 
89 90 
89 93 
89 94 
89 100 
89 102 
89 105 
89 108 
89 109 
89 110 
89 111 
89 113 
90 92 
90 96 
90 99 
90 106 
90 109 
90 110 
90 111 
90 112 
90 113 
90 115 
91 92 
91 93 
91 99 
91 101 
91 102 
91 105 
91 106 
91 107 
91 110 
91 114 
91 117 
92 93 
92 96 
92 99 
92 103 
92 107 
92 109 
92 110 
92 112 
92 115 
92 117 
93 94 
93 96 
93 98 
93 105 
93 106 
93 109 
93 113 
93 116 
94 95 
94 96 
94 97 
94 98 
94 99 
94 100 
94 101 
94 105 
94 109 
94 113 
95 96 
95 97 
95 100 
95 103 
95 107 
95 108 
95 109 
95 112 
95 114 
95 116 
96 97 
96 98 
96 99 
96 106 
96 109 
96 110 
96 112 
96 116 
97 104 
97 105 
97 111 
97 113 
97 114 
97 116 
97 117 
98 99 
98 100 
98 101 
98 102 
98 103 
98 104 
98 106 
98 116 
99 100 
99 101 
99 102 
99 105 
99 106 
99 107 
99 109 
99 110 
99 112 
100 101 
100 102 
100 107 
100 108 
100 110 
100 111 
100 112 
100 114 
100 116 
101 104 
101 108 
101 110 
101 112 
101 114 
101 115 
101 117 
102 103 
102 104 
102 105 
102 106 
102 107 
102 108 
102 110 
102 111 
103 104 
103 107 
103 108 
103 109 
103 115 
103 117 
104 108 
104 112 
104 113 
104 114 
104 115 
105 106 
105 107 
105 109 
105 111 
105 113 
105 116 
105 117 
106 107 
106 111 
106 113 
106 115 
106 116 
107 112 
107 114 
107 115 
107 116 
107 117 
108 109 
108 110 
108 111 
108 112 
108 115 
109 110 
109 112 
109 113 
110 111 
110 112 
110 114 
110 117 
111 113 
111 115 
111 116 
111 117 
112 114 
112 115 
112 116 
113 114 
113 115 
114 116 
114 117 
115 117 
116 117 
